Route #1: 1 24 52 21 43 67 69 58 72
Route #2: 17 38 56 47 65 49 27 2
Route #3: 63 5 30 70 37
Route #4: 75 29 73 76 32 7 57
Route #5: 8 71 22 34 12 15 51
Route #6: 45 46 31 3 20 54 62
Route #7: 50 61 39 74 28 4 19 9
Route #8: 48 13 33 55 35 59 36 14 41
Route #9: 53 68 18 16 66 60 6
Route #10: 42 25 10 40 64 11 26 44 23 77
Cost 1262